
******************************************************************************
This program contains Ipopt, a library for large-scale nonlinear optimization.
 Ipopt is released as open source code under the Eclipse Public License (EPL).
         For more information visit http://projects.coin-or.org/Ipopt

This version of Ipopt was compiled from source code available at
    https://github.com/IDAES/Ipopt as part of the Institute for the Design of
    Advanced Energy Systems Process Systems Engineering Framework (IDAES PSE
    Framework) Copyright (c) 2018-2019. See https://github.com/IDAES/idaes-pse.

This version of Ipopt was compiled using HSL, a collection of Fortran codes
    for large-scale scientific computation.  All technical papers, sales and
    publicity material resulting from use of the HSL codes within IPOPT must
    contain the following acknowledgement:
        HSL, a collection of Fortran codes for large-scale scientific
        computation. See http://www.hsl.rl.ac.uk.
******************************************************************************

This is Ipopt version 3.13.2, running with linear solver ma27.

Number of nonzeros in equality constraint Jacobian...:     1020
Number of nonzeros in inequality constraint Jacobian.:        0
Number of nonzeros in Lagrangian Hessian.............:     1161

Total number of variables............................:      405
                     variables with only lower bounds:      108
                variables with lower and upper bounds:      243
                     variables with only upper bounds:        0
Total number of equality constraints.................:      402
Total number of inequality constraints...............:        0
        inequality constraints with only lower bounds:        0
   inequality constraints with lower and upper bounds:        0
        inequality constraints with only upper bounds:        0

iter    objective    inf_pr   inf_du lg(mu)  ||d||  lg(rg) alpha_du alpha_pr  ls
   0  0.0000000e+00 1.49e+00 2.80e-14  -1.0 0.00e+00    -  0.00e+00 0.00e+00   0
   1  2.3246983e-03 1.49e+00 5.27e+02  -1.0 1.51e+06    -  6.16e-02 2.12e-03h  4
   2  8.4131757e-03 1.48e+00 9.49e+02  -1.0 1.94e+06    -  4.99e-02 2.18e-03h  4
   3  1.8244852e-02 1.48e+00 1.30e+03  -1.0 2.19e+06    -  4.62e-02 2.08e-03h  4
   4  5.3268076e-02 1.48e+00 2.68e+03  -1.0 2.52e+06    -  4.37e-02 4.24e-03h  3
   5  2.6258286e-01 1.46e+00 9.73e+03  -1.0 3.25e+06    -  6.33e-02 9.30e-03h  2
   6  2.6235957e+00 1.37e+00 5.29e+04  -1.0 5.12e+06    -  4.46e-02 2.03e-02h  1
   7  2.7315530e+00 1.37e+00 5.32e+04  -1.0 1.84e+07    -  1.94e-02 3.50e-04h  1
   8  1.2843085e+01 1.34e+00 1.57e+06  -1.0 3.24e+07    -  5.85e-03 9.42e-03h  1
   9  1.3297176e+01 1.34e+00 1.56e+06  -1.0 1.27e+08    -  2.37e-04 6.08e-05h  7
iter    objective    inf_pr   inf_du lg(mu)  ||d||  lg(rg) alpha_du alpha_pr  ls
  10  1.5652873e+01 1.33e+00 1.25e+06  -1.0 3.72e+08    -  1.16e-04 1.16e-04s 13
  11  2.3013256e+01 1.30e+00 1.00e+06  -1.0 4.94e+07    -  1.96e-03 1.96e-03s 13
  12  5.5811132e+01 1.12e+00 6.54e+05  -1.0 2.52e+07    -  1.19e-02 1.19e-02s 13
  13  2.0989004e+02 9.57e-01 7.19e+05  -1.0 2.47e+07    -  3.72e-02 3.72e-02s 13
  14  1.3092246e+03 1.28e+01 2.07e+06  -1.0 3.93e+07    -  8.16e-02 8.16e-02s 13
  15  1.1139603e+04 1.13e+01 2.54e+07  -1.0 9.40e+07    -  1.16e-01 1.16e-01s 13
  16  5.5897722e+04 1.07e+01 1.53e+07  -1.0 4.00e+08    -  5.55e-02 5.55e-02s 13
  17  8.5885972e+03 1.05e+01 6.37e+07  -1.0 1.34e+09    -  1.73e-02 1.73e-02s 13
  18  5.3851971e+03 1.02e+01 8.01e+07  -1.0 1.39e+08    -  2.17e-02 2.17e-02s 13
  19r 5.3851971e+03 1.02e+01 1.00e+03   1.0 0.00e+00    -  0.00e+00 0.00e+00R  1
iter    objective    inf_pr   inf_du lg(mu)  ||d||  lg(rg) alpha_du alpha_pr  ls
  20r 5.3851974e+03 4.03e+00 9.96e+02   1.0 6.43e+03    -  5.43e-03 1.58e-03f  1
  21r 5.3851986e+03 3.48e+00 9.92e+02   1.0 2.42e+03    -  1.44e-02 3.85e-03f  1
  22r 5.3852027e+03 3.05e+00 9.80e+02   1.0 1.00e+03    -  4.09e-02 1.15e-02f  1
  23r 5.3852108e+03 2.79e+00 9.52e+02   1.0 5.92e+02    -  1.89e-02 2.85e-02f  1
  24r 5.3852224e+03 2.55e+00 9.51e+02   1.0 6.66e+02    -  1.99e-02 4.40e-02f  1
  25r 5.3852226e+03 2.52e+00 9.23e+02   1.0 2.39e+02    -  2.75e-02 8.96e-03f  1
  26r 5.3852227e+03 2.49e+00 9.19e+02   1.0 1.32e+03    -  3.98e-03 1.03e-02f  1
  27r 5.3852228e+03 2.45e+00 8.98e+02   1.0 1.69e+02    -  2.53e-02 1.18e-02f  1
  28r 5.3852230e+03 2.38e+00 8.59e+02   1.0 2.13e+02    -  4.68e-02 2.48e-02f  1
  29r 5.3852230e+03 2.32e+00 8.61e+02   1.0 1.63e+00   4.0 2.54e-02 3.68e-02h  1
iter    objective    inf_pr   inf_du lg(mu)  ||d||  lg(rg) alpha_du alpha_pr  ls
  30r 5.3852230e+03 1.92e+00 2.44e+03   1.0 1.57e+00   3.5 3.84e-02 2.57e-01f  1
  31r 5.3852230e+03 1.57e+00 2.08e+03   1.0 1.04e+00   3.0 2.76e-01 2.24e-01f  1
  32r 5.3852230e+03 1.22e+00 2.06e+03   1.0 6.88e-01   3.5 2.60e-01 6.31e-01h  1
  33  4.9147930e+03 1.22e+00 1.08e+04  -1.0 9.15e+08    -  2.67e-03 6.10e-04f  1
  34  4.0284170e+03 1.22e+00 1.06e+05  -1.0 1.33e+09    -  4.84e-04 8.55e-04f  1
  35  4.2866610e+03 1.22e+00 6.10e+04  -1.0 8.61e+08    -  1.82e-02 3.98e-04h  1
  36  4.4802923e+03 1.22e+00 5.65e+05  -1.0 2.43e+08    -  9.92e-02 1.04e-03h  2
  37  2.0132896e+03 1.21e+00 1.27e+08  -1.0 6.98e+08    -  1.06e-03 5.49e-03f  2
  38  2.0593365e+03 1.21e+00 1.26e+08  -1.0 5.60e+07    -  1.73e-02 1.62e-03h  4
  39  2.0593521e+03 1.21e+00 1.26e+08  -1.0 1.37e+07  -2.0 3.12e-04 6.61e-06h  2
iter    objective    inf_pr   inf_du lg(mu)  ||d||  lg(rg) alpha_du alpha_pr  ls
  40  2.1267326e+03 1.21e+00 1.26e+08  -1.0 1.45e+08    -  1.02e-01 8.86e-04h  1
  41  2.8628385e+03 1.20e+00 9.89e+07  -1.0 2.23e+08    -  4.81e-03 5.71e-03h  1
  42  2.8628513e+03 1.20e+00 9.89e+07  -1.0 1.66e+07  -2.5 2.70e-05 4.21e-06h  2
  43  2.9744568e+03 1.20e+00 9.76e+07  -1.0 3.76e+08    -  3.45e-04 4.75e-04h  4
  44  2.9744727e+03 1.20e+00 9.80e+07  -1.0 1.49e+07   0.7 3.83e-07 5.70e-06f  2
  45r 2.9744727e+03 1.20e+00 1.00e+03   0.1 0.00e+00   0.2 0.00e+00 2.97e-07R  5
  46r 2.9744728e+03 6.78e-01 9.97e+02   0.1 1.19e+03    -  5.81e-03 1.10e-03f  1
  47r 2.9744728e+03 6.78e-01 9.99e+02  -0.2 0.00e+00    -  0.00e+00 6.87e-08R  2
  48r 2.9744729e+03 6.80e-01 9.97e+02  -0.2 5.40e+02    -  4.26e-03 1.86e-03f  1
  49r 2.9744731e+03 6.79e-01 9.95e+02  -0.2 7.34e+02    -  2.19e-02 2.39e-03f  1
iter    objective    inf_pr   inf_du lg(mu)  ||d||  lg(rg) alpha_du alpha_pr  ls
  50r 2.9744753e+03 6.66e-01 9.69e+02  -0.2 7.15e+02    -  3.49e-02 2.56e-02f  1
  51r 2.9744769e+03 6.46e-01 9.42e+02  -0.2 1.76e+02    -  3.24e-02 2.79e-02f  1
  52r 2.9744795e+03 5.83e-01 9.30e+02  -0.2 1.79e+02    -  1.49e-02 4.11e-02f  1
  53  2.9750908e+03 5.83e-01 3.21e+02  -1.0 2.02e+07    -  1.00e-03 2.34e-04h  1
  54  2.9750061e+03 5.83e-01 1.16e+05  -1.0 3.46e+07    -  9.35e-02 4.18e-06h  1
  55  2.6363093e+03 5.73e+00 6.95e+05  -1.0 9.69e+07    -  1.02e-01 5.90e-03f  1
  56  1.1463541e+03 3.66e+00 1.14e+08  -1.0 8.58e+07    -  7.15e-02 3.97e-02F  1
  57  1.1463540e+03 3.66e+00 7.82e+08  -1.0 7.03e+06  -0.3 3.40e-03 6.39e-07h  4
  58  6.2748120e+02 3.86e+00 2.02e+10  -1.0 6.13e+08    -  7.45e-04 3.73e-03f  2
  59  6.2037272e+02 6.07e+00 2.02e+10  -1.0 3.39e+07    -  1.78e-03 1.25e-03f  2
iter    objective    inf_pr   inf_du lg(mu)  ||d||  lg(rg) alpha_du alpha_pr  ls
  60  6.1681170e+02 4.40e+00 2.02e+10  -1.0 3.34e+07    -  2.09e-03 6.36e-04f  2
  61  6.1496113e+02 4.01e+00 2.02e+10  -1.0 3.31e+07    -  2.30e-03 3.33e-04f  2
  62  6.1448265e+02 4.40e+00 2.02e+10  -1.0 3.29e+07    -  2.47e-03 8.65e-05f  3
  63  6.1412015e+02 6.09e+00 2.02e+10  -1.0 3.29e+07    -  7.73e-03 6.56e-05f  3
  64  6.1304001e+02 3.06e+01 2.02e+10  -1.0 3.32e+07    -  5.30e-03 1.99e-04f  1
  65  6.1190793e+02 3.06e+01 2.02e+10  -1.0 4.07e+07    -  2.43e-02 1.95e-04f  1
  66  6.1641234e+02 3.05e+01 2.20e+10  -1.0 6.69e+07    -  5.14e-04 4.24e-03h  1
  67  6.2283567e+02 3.04e+01 2.21e+10  -1.0 6.25e+07    -  3.90e-02 1.23e-03h  3
  68r 6.2283567e+02 3.04e+01 1.00e+03   1.5 0.00e+00  -0.8 0.00e+00 2.90e-07R  5
  69r 6.2283574e+02 2.92e+01 9.96e+02   1.5 5.71e+02    -  1.88e-02 3.24e-03f  1
iter    objective    inf_pr   inf_du lg(mu)  ||d||  lg(rg) alpha_du alpha_pr  ls
  70r 6.2283633e+02 1.10e+02 9.78e+02   1.5 4.26e+02    -  7.69e-03 3.23e-02f  1
  71r 6.2283633e+02 2.56e+01 3.74e+03   1.5 2.50e+01   0.0 5.52e-02 1.01e-02f  1
  72r 6.2283646e+02 1.94e+01 1.04e+03   1.5 1.74e+03    -  1.98e-04 3.36e-03f  1
  73  6.2284401e+02 1.94e+01 8.52e+02  -1.0 1.29e+07    -  2.94e-03 1.71e-06h  2
  74  6.2285864e+02 1.94e+01 2.34e+05  -1.0 6.04e+07    -  1.89e-02 2.38e-06h  5
  75  6.3981316e+02 1.23e+02 4.74e+06  -1.0 6.15e+07    -  2.71e-03 2.71e-03s 16
  76  8.7156058e+02 1.08e+02 8.00e+07  -1.0 6.42e+07    -  1.77e-02 1.77e-02s 16
  77r 8.7156058e+02 1.08e+02 9.99e+02   2.0 0.00e+00    -  0.00e+00 0.00e+00R  1
  78r 8.7156053e+02 1.76e+01 9.96e+02   2.0 3.57e+03    -  2.14e-02 2.84e-03f  1
  79r 8.7156045e+02 1.36e+01 6.85e+03   2.0 1.65e+03    -  1.20e-02 1.06e-02f  1
iter    objective    inf_pr   inf_du lg(mu)  ||d||  lg(rg) alpha_du alpha_pr  ls
  80r 8.7156032e+02 2.76e+01 2.83e+04   2.0 1.98e+02    -  7.44e-02 1.94e-02f  1
  81r 8.7155962e+02 1.25e+01 2.82e+12   2.0 9.55e+01    -  5.28e-01 1.29e-01f  1
WARNING: Problem in step computation; switching to emergency mode.
  82r 8.7155962e+02 1.25e+01 2.82e+12   2.0 9.55e+01  19.8 0.00e+00 0.00e+00R  1
WARNING: Problem in step computation; switching to emergency mode.
Restoration phase is called at point that is almost feasible,
  with constraint violation 0.000000e+00. Abort.
Restoration phase in the restoration phase failed.

Number of Iterations....: 82

                                   (scaled)                 (unscaled)
Objective...............:   8.7155962369775091e+02    8.7155962369775091e+02
Dual infeasibility......:   2.8206235035378853e+12    2.8206235035378853e+12
Constraint violation....:   1.2495742906771055e+01    1.2495742906771055e+01
Complementarity.........:   4.0476947953210974e+08    4.0476947953210974e+08
Overall NLP error.......:   2.5473404481120103e+12    2.8206235035378853e+12


Number of objective function evaluations             = 207
Number of objective gradient evaluations             = 60
Number of equality constraint evaluations            = 207
Number of inequality constraint evaluations          = 0
Number of equality constraint Jacobian evaluations   = 88
Number of inequality constraint Jacobian evaluations = 0
Number of Lagrangian Hessian evaluations             = 83
Total CPU secs in IPOPT (w/o function evaluations)   =      0.187
Total CPU secs in NLP function evaluations           =      2.845

EXIT: Restoration Failed!
